
Gurobi 12.0.2 (win64) logging started Thu Jun  5 16:49:05 2025

Set parameter LogFile to value "C:\Ioana\_uni\honours\slp\algorithm\Main_files\results\paracetamol_final_i_hope\Task_003_Sample001_irr_gurobi.log"
Gurobi Optimizer version 12.0.2 build v12.0.2rc0 (win64 - Windows 11.0 (26100.2))

CPU model: Intel(R) Core(TM) Ultra 5 125H, instruction set [SSE2|AVX|AVX2]
Thread count: 14 physical cores, 18 logical processors, using up to 18 threads

Non-default parameters:
TimeLimit  2200

Optimize a model with 47236 rows, 34517 columns and 146727 nonzeros
Model fingerprint: 0x56fe06a3
Variable types: 17268 continuous, 17249 integer (17249 binary)
Coefficient statistics:
  Matrix range     [1e-04, 8e+04]
  Objective range  [4e-04, 9e-01]
  Bounds range     [1e+00, 1e+03]
  RHS range        [1e+00, 1e+00]
Presolve removed 30775 rows and 21544 columns
Presolve time: 0.46s
Presolved: 16461 rows, 12973 columns, 54809 nonzeros
Variable types: 6425 continuous, 6548 integer (6548 binary)
Found heuristic solution: objective 13.6035056

Root relaxation: objective 9.843857e-01, 3811 iterations, 0.41 seconds (0.89 work units)

    Nodes    |    Current Node    |     Objective Bounds      |     Work
 Expl Unexpl |  Obj  Depth IntInf | Incumbent    BestBd   Gap | It/Node Time

     0     0    0.98439    0    2   13.60351    0.98439  92.8%     -    0s
H    0     0                       1.8656404    0.98439  47.2%     -    0s
H    0     0                       1.1299389    0.98439  12.9%     -    0s
     0     0    0.98439    0    2    1.12994    0.98439  12.9%     -    0s

Explored 1 nodes (3811 simplex iterations) in 1.00 seconds (1.37 work units)
Thread count was 18 (of 18 available processors)

Solution count 3: 1.12994 1.86564 13.6035 

Optimal solution found (tolerance 1.00e-04)
Best objective 1.129938895805e+00, best bound 1.129938895805e+00, gap 0.0000%
